NAME: PointSet_Angle_40_3
TYPE: TSP
COMMENT: Points chosen discrete uniformly at random out of ${0, \ldots, 500}^2$.
DIMENSION: 40
EDGE_WEIGHT_TYPE: EUC_2D
NODE_COORD_SECTION
1 203 488
2 384 189
3 10 88
4 453 465
5 1 88
6 78 461
7 369 106
8 322 473
9 177 318
10 302 136
11 201 452
12 182 242
13 145 392
14 332 240
15 395 396
16 304 345
17 383 187
18 280 139
19 22 233
20 350 23
21 67 174
22 485 436
23 281 52
24 408 458
25 370 456
26 93 318
27 153 276
28 306 299
29 414 384
30 285 308
31 279 89
32 152 409
33 22 433
34 294 44
35 412 144
36 68 479
37 318 299
38 160 345
39 351 68
40 49 467
EOF
